Geometry = GenFormat {
 <<< "geom.gen"
}

SlaterKosterFiles = Type2FileNames {
  Prefix = "/home/ljiljana/Desktop/w0.3/"
  Separator = "-"
  Suffix = ".skf"
}

Hessian = {
<<< "hessian.out"
}

DisplayModes {
PlotModes = -90:-1
Animate = No
XMakeMol = No
}

